(set-info :origin "NTS benchmark converted to SMT-LIB2 using Eldarica (http://lara.epfl.ch/w/eldarica)")
(set-logic HORN)
(declare-fun p (Real Real Real Real Real Real Real Real) Bool)
(assert(forall((A Real)(B Real)(C Real)(D Real)(E Real)(F Real)(G Real)(H Real))(=>(and (and (= A 0.0) true) true) (p A B C D E F G H))))
(assert(forall((A Real)(B Real)(C Real)(D Real)(E Real)(F Real)(G Real)(H Real)(I Real)(J Real)(K Real)(L Real)(M Real)(N Real)(O Real)(P Real)(Q Real)(R Real)(S Real)(T Real)(U Real)(V Real)(W Real)(X Real)(Y Real)(Z Real)(A1 Real)(B1 Real)(C1 Real)(D1 Real)(E1 Real)(F1 Real)(G1 Real)(H1 Real)(I1 Real)(J1 Real)(K1 Real)(L1 Real)(M1 Real)(N1 Real)(O1 Real)(P1 Real)(Q1 Real)(R1 Real)(S1 Real)(T1 Real))(=>(and (or (or (or (or (or (or (or (or (or (or (or (or (or (or (or (or (or (and (and (and (and (= A 1.0) (= I 0.0)) (and (= J B) (= K C))) true) (and (and (and (and (and (and (and (and (and (and (not (not (>= (+ L 0.0) 0.0))) (not (not (<= L 1.0)))) (not (not (>= (+ M 0.0) 0.0)))) (not (not (<= M 1.0)))) (not (not (>= (+ K (- 10.0)) 0.0)))) (not (not (<= K 10.0)))) (not (not (>= (+ J (- 10.0)) 0.0)))) (not (not (<= J 10.0)))) (not (= M 0.0))) (not (not (= L 0.0)))) (not (and (or (not (= M 0.0)) (not (= (+ N 0.0) 0.0))) (or (= M 0.0) (= (+ N 0.0) 0.0)))))) (and (and (and (and (= A 1.0) (= I 1.0)) (and (= J B) (= K C))) (and (= O P) (= Q R))) (and (and (and (and (and (and (and (and (and (and (and (and (and (and (and (and (and (and (and (and (and (not (not (>= (+ L 0.0) 0.0))) (not (not (<= L 1.0)))) (not (not (>= (+ S 0.0) 0.0)))) (not (not (<= S 1.0)))) (not (not (>= (+ T 0.0) 0.0)))) (not (not (<= T 1.0)))) (not (not (>= (+ U 0.0) 0.0)))) (not (not (<= U 1.0)))) (not (not (>= (+ M 0.0) 0.0)))) (not (not (<= M 1.0)))) (not (and (or (not (= U 0.0)) (not (= (+ V 0.0) 0.0))) (or (= U 0.0) (= (+ V 0.0) 0.0))))) (not (not (= W (+ 1.0 Q))))) (not (not (= X (+ 1.0 O))))) (not (not (>= K Y)))) (not (not (>= Y K)))) (not (not (>= J Z)))) (not (not (>= Z J)))) (not (= M 0.0))) (not (not (= L 0.0)))) (not (and (= L 0.0) (not (= T 0.0))))) (not (and (= L 0.0) (or (or (or (or (or (or (not (= S 0.0)) (not (= T 0.0))) (not (= U 0.0))) (not (>= X Z))) (not (>= Z X))) (not (>= W Y))) (not (>= Y W)))))) (not (and (or (not (= M 0.0)) (not (= (+ N 0.0) 0.0))) (or (= M 0.0) (= (+ N 0.0) 0.0))))))) (and (and (and (and (= A 1.0) (= I 2.0)) (and (= J B) (= K C))) (and (and (and (= A1 P) (= B1 R)) (= C1 D1)) (= E1 F1))) (and (and (and (and (and (and (and (and (and (and (and (and (and (and (and (and (and (and (and (and (and (and (and (and (and (and (and (and (and (and (not (not (>= (+ O 0.0) 0.0))) (not (not (<= O 1.0)))) (not (not (>= (+ M 0.0) 0.0)))) (not (not (<= M 1.0)))) (not (not (>= (+ L 0.0) 0.0)))) (not (not (<= L 1.0)))) (not (not (>= (+ S 0.0) 0.0)))) (not (not (<= S 1.0)))) (not (not (>= (+ T 0.0) 0.0)))) (not (not (<= T 1.0)))) (not (not (>= (+ U 0.0) 0.0)))) (not (not (<= U 1.0)))) (not (not (>= (+ Q 0.0) 0.0)))) (not (not (<= Q 1.0)))) (not (not (>= (+ V 0.0) 0.0)))) (not (not (<= V 1.0)))) (not (and (or (not (= V 0.0)) (not (= (+ G1 0.0) 0.0))) (or (= V 0.0) (= (+ G1 0.0) 0.0))))) (not (and (or (not (= U 0.0)) (<= X 0.0)) (or (= U 0.0) (not (<= X 0.0)))))) (not (not (= W (+ 2.0 E1))))) (not (not (= X (+ 2.0 C1))))) (not (not (>= K H1)))) (not (not (>= H1 K)))) (not (not (>= J I1)))) (not (not (>= I1 J)))) (not (= M 0.0))) (not (not (= O 0.0)))) (not (and (= O 0.0) (not (= Q 0.0))))) (not (and (= O 0.0) (or (or (or (or (or (or (not (= L 0.0)) (not (= Q 0.0))) (not (= V 0.0))) (not (>= Z I1))) (not (>= I1 Z))) (not (>= Y H1))) (not (>= H1 Y)))))) (not (and (= L 0.0) (not (= T 0.0))))) (not (and (= L 0.0) (or (or (or (or (or (or (not (= S 0.0)) (not (= T 0.0))) (= U 0.0)) (not (>= X Z))) (not (>= Z X))) (not (>= W Y))) (not (>= Y W)))))) (not (and (or (not (= M 0.0)) (not (= (+ N 0.0) 0.0))) (or (= M 0.0) (= (+ N 0.0) 0.0))))))) (and (and (and (and (= A 1.0) (= I 3.0)) (and (= J B) (= K C))) (and (and (and (and (and (and (= J1 P) (= K1 R)) (= L1 D1)) (= B1 F1)) (= A1 M1)) (= N1 O1)) (= G1 P1))) (and (and (and (and (and (and (and (and (and (and (and (and (and (and (and (and (and (and (and (and (and (and (and (and (and (and (and (and (and (and (and (and (and (and (and (and (not (not (>= (+ Q 0.0) 0.0))) (not (not (<= Q 1.0)))) (not (not (>= (+ M 0.0) 0.0)))) (not (not (<= M 1.0)))) (not (not (>= (+ X 0.0) 0.0)))) (not (not (<= X 1.0)))) (not (not (>= (+ V 0.0) 0.0)))) (not (not (<= V 1.0)))) (not (not (>= (+ I1 0.0) 0.0)))) (not (not (<= I1 1.0)))) (not (not (>= (+ L 0.0) 0.0)))) (not (not (<= L 1.0)))) (not (not (>= (+ S 0.0) 0.0)))) (not (not (<= S 1.0)))) (not (not (>= (+ T 0.0) 0.0)))) (not (not (<= T 1.0)))) (not (not (>= (+ U 0.0) 0.0)))) (not (not (<= U 1.0)))) (not (not (>= (+ Z 0.0) 0.0)))) (not (not (<= Z 1.0)))) (not (and (or (not (= I1 0.0)) (not (= (+ Q1 0.0) 0.0))) (or (= I1 0.0) (= (+ Q1 0.0) 0.0))))) (not (not (= Y (- B1 L1))))) (not (and (or (not (= U 0.0)) (not (= E1 A1))) (or (= U 0.0) (= E1 A1))))) (not (not (= E1 (+ 1.0 G1))))) (not (not (>= K C1)))) (not (not (>= C1 K)))) (not (not (>= J H1)))) (not (not (>= H1 J)))) (not (= M 0.0))) (not (not (= Q 0.0)))) (not (and (= Q 0.0) (not (= V 0.0))))) (not (and (= Q 0.0) (or (or (or (or (or (or (not (= X 0.0)) (not (= V 0.0))) (not (= I1 0.0))) (not (>= W H1))) (not (>= H1 W))) (not (>= O C1))) (not (>= C1 O)))))) (not (and (= X 0.0) (not (= Z 0.0))))) (not (and (= X 0.0) (or (or (or (or (or (not (= L 0.0)) (not (= Z 0.0))) (not (<= W 0.0))) (not (>= (+ W 0.0) 0.0))) (not (>= Y O))) (not (>= O Y)))))) (not (and (= L 0.0) (not (= T 0.0))))) (not (and (= L 0.0) (or (or (not (= S 0.0)) (not (= T 0.0))) (not (= U 0.0)))))) (not (and (or (not (= M 0.0)) (not (= (+ N 0.0) 0.0))) (or (= M 0.0) (= (+ N 0.0) 0.0))))))) (and (and (and (and (= A 2.0) (= I 1.0)) (and (and (and (= J B) (= K C)) (= M D)) (= N E))) (and (= U P) (= X R))) (and (and (and (and (and (and (and (and (and (and (and (and (not (not (>= (+ T 0.0) 0.0))) (not (not (<= T 1.0)))) (not (not (>= (+ L 0.0) 0.0)))) (not (not (<= L 1.0)))) (not (not (= K (+ 1.0 X))))) (not (not (= J (+ 1.0 U))))) (not (not (>= N K)))) (not (not (>= K N)))) (not (not (>= M J)))) (not (not (>= J M)))) (not (= L 0.0))) (not (not (= T 0.0)))) (not (and (or (not (= L 0.0)) (not (= (+ S 0.0) 0.0))) (or (= L 0.0) (= (+ S 0.0) 0.0))))))) (and (and (and (and (= A 2.0) (= I 2.0)) (and (and (and (= J B) (= K C)) (= M D)) (= N E))) (and (and (and (= J P) (= K R)) (= V D1)) (= I1 F1))) (and (and (and (and (and (and (and (and (and (and (and (and (and (and (and (and (and (and (and (and (and (not (not (>= (+ T 0.0) 0.0))) (not (not (<= T 1.0)))) (not (not (>= (+ U 0.0) 0.0)))) (not (not (<= U 1.0)))) (not (not (>= (+ X 0.0) 0.0)))) (not (not (<= X 1.0)))) (not (not (>= (+ Z 0.0) 0.0)))) (not (not (<= Z 1.0)))) (not (not (>= (+ L 0.0) 0.0)))) (not (not (<= L 1.0)))) (not (and (or (not (= Z 0.0)) (<= W 0.0)) (or (= Z 0.0) (not (<= W 0.0)))))) (not (not (= O (+ 2.0 I1))))) (not (not (= W (+ 2.0 V))))) (not (not (>= N Q)))) (not (not (>= Q N)))) (not (not (>= M Y)))) (not (not (>= Y M)))) (not (= L 0.0))) (not (not (= T 0.0)))) (not (and (= T 0.0) (not (= X 0.0))))) (not (and (= T 0.0) (or (or (or (or (or (or (not (= U 0.0)) (not (= X 0.0))) (= Z 0.0)) (not (>= W Y))) (not (>= Y W))) (not (>= O Q))) (not (>= Q O)))))) (not (and (or (not (= L 0.0)) (not (= (+ S 0.0) 0.0))) (or (= L 0.0) (= (+ S 0.0) 0.0))))))) (and (and (and (and (= A 2.0) (= I 3.0)) (and (and (and (= J B) (= K C)) (= M D)) (= N E))) (and (and (and (and (and (and (= J P) (= K R)) (= G1 D1)) (= E1 F1)) (= C1 M1)) (= A1 O1)) (= H1 P1))) (and (and (and (and (and (and (and (and (and (and (and (and (and (and (and (and (and (and (and (and (and (and (and (and (and (and (and (not (not (>= (+ W 0.0) 0.0))) (not (not (<= W 1.0)))) (not (not (>= (+ L 0.0) 0.0)))) (not (not (<= L 1.0)))) (not (not (>= (+ T 0.0) 0.0)))) (not (not (<= T 1.0)))) (not (not (>= (+ U 0.0) 0.0)))) (not (not (<= U 1.0)))) (not (not (>= (+ X 0.0) 0.0)))) (not (not (<= X 1.0)))) (not (not (>= (+ Z 0.0) 0.0)))) (not (not (<= Z 1.0)))) (not (not (>= (+ Y 0.0) 0.0)))) (not (not (<= Y 1.0)))) (not (not (= Q (- E1 G1))))) (not (and (or (not (= Z 0.0)) (not (= I1 C1))) (or (= Z 0.0) (= I1 C1))))) (not (not (= I1 (+ 1.0 H1))))) (not (not (>= N V)))) (not (not (>= V N)))) (not (not (>= M O)))) (not (not (>= O M)))) (not (= L 0.0))) (not (not (= W 0.0)))) (not (and (= W 0.0) (not (= Y 0.0))))) (not (and (= W 0.0) (or (or (or (or (or (not (= T 0.0)) (not (= Y 0.0))) (not (<= O 0.0))) (not (>= (+ O 0.0) 0.0))) (not (>= Q V))) (not (>= V Q)))))) (not (and (= T 0.0) (not (= X 0.0))))) (not (and (= T 0.0) (or (or (not (= U 0.0)) (not (= X 0.0))) (not (= Z 0.0)))))) (not (and (or (not (= L 0.0)) (not (= (+ S 0.0) 0.0))) (or (= L 0.0) (= (+ S 0.0) 0.0))))))) (and (and (and (and (= A 3.0) (= I 2.0)) (and (and (and (and (and (and (= J B) (= K C)) (= M D)) (= N E)) (= L F)) (= S G)) (= T H))) (and (and (and (= J P) (= K R)) (= M D1)) (= N F1))) (and (and (and (and (and (and (and (and (and (and (and (and (and (and (and (not (not (>= (+ Z 0.0) 0.0))) (not (not (<= Z 1.0)))) (not (not (>= (+ U 0.0) 0.0)))) (not (not (<= U 1.0)))) (not (not (>= (+ X 0.0) 0.0)))) (not (not (<= X 1.0)))) (not (not (>= (+ W 0.0) 0.0)))) (not (not (<= W 1.0)))) (not (not (= S (+ 2.0 N))))) (not (not (= L (+ 2.0 M))))) (not (not (>= (+ T 0.0) 0.0)))) (not (not (<= T 0.0)))) (not (not (= X 0.0)))) (not (and (= X 0.0) (not (= W 0.0))))) (not (and (= X 0.0) (or (or (not (= Z 0.0)) (not (= W 0.0))) (not (= U 0.0)))))) (not (and (or (not (= U 0.0)) (<= L 0.0)) (or (= U 0.0) (not (<= L 0.0)))))))) (and (and (and (and (= A 3.0) (= I 3.0)) (and (and (and (and (and (and (= J B) (= K C)) (= M D)) (= N E)) (= L F)) (= S G)) (= T H))) (and (and (and (and (and (and (= J P) (= K R)) (= M D1)) (= N F1)) (= L M1)) (= S O1)) (= W P1))) (and (and (and (and (and (and (and (and (and (not (not (>= (+ Z 0.0) 0.0))) (not (not (<= Z 1.0)))) (not (not (>= (+ U 0.0) 0.0)))) (not (not (<= U 1.0)))) (not (not (= X (+ 1.0 W))))) (not (not (>= T X)))) (not (not (>= X T)))) (not (= U 0.0))) (not (not (= Z 0.0)))) (not (and (or (not (= U 0.0)) (not (= X L))) (or (= U 0.0) (= X L))))))) (and (and (and (and (= A 4.0) (= I 0.0)) true) true) (and (and (and (and (and (and (and (and (and (and (and (and (and (and (and (not (not (>= (+ L 0.0) 0.0))) (not (not (<= L 1.0)))) (not (not (>= (+ T 0.0) 0.0)))) (not (not (<= T 1.0)))) (not (not (>= (+ N 0.0) 0.0)))) (not (not (<= N 1.0)))) (not (not (>= (+ S 0.0) 0.0)))) (not (not (<= S 1.0)))) (not (not (>= (+ J 0.0) 0.0)))) (not (not (<= J 1.0)))) (not (and (or (not (= T 0.0)) (not (= (+ U 0.0) 0.0))) (or (= T 0.0) (= (+ U 0.0) 0.0))))) (not (not (= J 0.0)))) (not (not (= N 0.0)))) (not (and (= N 0.0) (not (= S 0.0))))) (not (and (= N 0.0) (or (or (or (or (or (or (not (= L 0.0)) (not (= S 0.0))) (not (= T 0.0))) (not (<= K 10.0))) (not (>= (+ K (- 10.0)) 0.0))) (not (<= M 10.0))) (not (>= (+ M (- 10.0)) 0.0)))))) (not (and (or (not (= J 0.0)) (not (= K M))) (or (= J 0.0) (= K M))))))) (and (and (and (and (= A 4.0) (= I 1.0)) true) (and (= V P) (= I1 R))) (and (and (and (and (and (and (and (and (and (and (and (and (and (and (and (and (and (and (and (and (and (and (and (and (and (and (not (not (>= (+ N 0.0) 0.0))) (not (not (<= N 1.0)))) (not (not (>= (+ L 0.0) 0.0)))) (not (not (<= L 1.0)))) (not (not (>= (+ S 0.0) 0.0)))) (not (not (<= S 1.0)))) (not (not (>= (+ T 0.0) 0.0)))) (not (not (<= T 1.0)))) (not (not (>= (+ Q 0.0) 0.0)))) (not (not (<= Q 1.0)))) (not (not (>= (+ Y 0.0) 0.0)))) (not (not (<= Y 1.0)))) (not (not (>= (+ J 0.0) 0.0)))) (not (not (<= J 1.0)))) (not (not (>= (+ O 0.0) 0.0)))) (not (not (<= O 1.0)))) (not (and (or (not (= Q 0.0)) (not (= (+ C1 0.0) 0.0))) (or (= Q 0.0) (= (+ C1 0.0) 0.0))))) (not (and (or (not (= T 0.0)) (not (= (+ H1 0.0) 0.0))) (or (= T 0.0) (= (+ H1 0.0) 0.0))))) (not (not (= Z (+ 1.0 I1))))) (not (not (= U (+ 1.0 V))))) (not (not (= J 0.0)))) (not (not (= Y 0.0)))) (not (and (= Y 0.0) (not (= O 0.0))))) (not (and (= Y 0.0) (or (or (or (or (or (or (not (= N 0.0)) (not (= O 0.0))) (not (= Q 0.0))) (not (>= X K))) (not (>= K X))) (not (>= W M))) (not (>= M W)))))) (not (and (= N 0.0) (not (= S 0.0))))) (not (and (= N 0.0) (or (or (or (or (or (or (not (= L 0.0)) (not (= S 0.0))) (not (= T 0.0))) (not (>= U X))) (not (>= X U))) (not (>= Z W))) (not (>= W Z)))))) (not (and (or (not (= J 0.0)) (not (= K M))) (or (= J 0.0) (= K M))))))) (and (and (and (and (= A 4.0) (= I 2.0)) true) (and (and (and (= Q1 P) (= J1 R)) (= G1 D1)) (= A1 F1))) (and (and (and (and (and (and (and (and (and (and (and (and (and (and (and (and (and (and (and (and (and (and (and (and (and (and (and (and (and (and (and (and (and (and (and (not (not (>= (+ Y 0.0) 0.0))) (not (not (<= Y 1.0)))) (not (not (>= (+ E1 0.0) 0.0)))) (not (not (<= E1 1.0)))) (not (not (>= (+ N 0.0) 0.0)))) (not (not (<= N 1.0)))) (not (not (>= (+ L 0.0) 0.0)))) (not (not (<= L 1.0)))) (not (not (>= (+ S 0.0) 0.0)))) (not (not (<= S 1.0)))) (not (not (>= (+ T 0.0) 0.0)))) (not (not (<= T 1.0)))) (not (not (>= (+ O 0.0) 0.0)))) (not (not (<= O 1.0)))) (not (not (>= (+ Q 0.0) 0.0)))) (not (not (<= Q 1.0)))) (not (not (>= (+ H1 0.0) 0.0)))) (not (not (<= H1 1.0)))) (not (not (>= (+ J 0.0) 0.0)))) (not (not (<= J 1.0)))) (not (not (>= (+ C1 0.0) 0.0)))) (not (not (<= C1 1.0)))) (not (and (or (not (= E1 0.0)) (not (= (+ L1 0.0) 0.0))) (or (= E1 0.0) (= (+ L1 0.0) 0.0))))) (not (and (or (not (= Q 0.0)) (not (= (+ B1 0.0) 0.0))) (or (= Q 0.0) (= (+ B1 0.0) 0.0))))) (not (and (or (not (= T 0.0)) (<= U 0.0)) (or (= T 0.0) (not (<= U 0.0)))))) (not (not (= Z (+ 2.0 A1))))) (not (not (= U (+ 2.0 G1))))) (not (not (= J 0.0)))) (not (not (= H1 0.0)))) (not (and (= H1 0.0) (not (= C1 0.0))))) (not (and (= H1 0.0) (or (or (or (or (or (or (not (= Y 0.0)) (not (= C1 0.0))) (not (= E1 0.0))) (not (>= V K))) (not (>= K V))) (not (>= I1 M))) (not (>= M I1)))))) (not (and (= Y 0.0) (not (= O 0.0))))) (not (and (= Y 0.0) (or (or (or (or (or (or (not (= N 0.0)) (not (= O 0.0))) (not (= Q 0.0))) (not (>= X V))) (not (>= V X))) (not (>= W I1))) (not (>= I1 W)))))) (not (and (= N 0.0) (not (= S 0.0))))) (not (and (= N 0.0) (or (or (or (or (or (or (not (= L 0.0)) (not (= S 0.0))) (= T 0.0)) (not (>= U X))) (not (>= X U))) (not (>= Z W))) (not (>= W Z)))))) (not (and (or (not (= J 0.0)) (not (= K M))) (or (= J 0.0) (= K M))))))) (and (and (and (and (= A 4.0) (= I 3.0)) true) (and (and (and (and (and (and (= R1 P) (= S1 R)) (= J1 D1)) (= Q1 F1)) (= L1 M1)) (= T1 O1)) (= B1 P1))) (and (and (and (and (and (and (and (and (and (and (and (and (and (and (and (and (and (and (and (and (and (and (and (and (and (and (and (and (and (and (and (and (and (and (and (and (and (and (and (and (and (not (not (>= (+ O 0.0) 0.0))) (not (not (<= O 1.0)))) (not (not (>= (+ G1 0.0) 0.0)))) (not (not (<= G1 1.0)))) (not (not (>= (+ U 0.0) 0.0)))) (not (not (<= U 1.0)))) (not (not (>= (+ Q 0.0) 0.0)))) (not (not (<= Q 1.0)))) (not (not (>= (+ V 0.0) 0.0)))) (not (not (<= V 1.0)))) (not (not (>= (+ N 0.0) 0.0)))) (not (not (<= N 1.0)))) (not (not (>= (+ L 0.0) 0.0)))) (not (not (<= L 1.0)))) (not (not (>= (+ S 0.0) 0.0)))) (not (not (<= S 1.0)))) (not (not (>= (+ T 0.0) 0.0)))) (not (not (<= T 1.0)))) (not (not (>= (+ X 0.0) 0.0)))) (not (not (<= X 1.0)))) (not (not (>= (+ C1 0.0) 0.0)))) (not (not (<= C1 1.0)))) (not (not (>= (+ J 0.0) 0.0)))) (not (not (<= J 1.0)))) (not (not (>= (+ E1 0.0) 0.0)))) (not (not (<= E1 1.0)))) (not (and (or (not (= G1 0.0)) (not (= (+ N1 0.0) 0.0))) (or (= G1 0.0) (= (+ N1 0.0) 0.0))))) (not (and (or (not (= V 0.0)) (not (= (+ K1 0.0) 0.0))) (or (= V 0.0) (= (+ K1 0.0) 0.0))))) (not (not (= W (- Q1 J1))))) (not (and (or (not (= T 0.0)) (not (= A1 L1))) (or (= T 0.0) (= A1 L1))))) (not (not (= A1 (+ 1.0 B1))))) (not (not (= J 0.0)))) (not (not (= C1 0.0)))) (not (and (= C1 0.0) (not (= E1 0.0))))) (not (and (= C1 0.0) (or (or (or (or (or (or (not (= O 0.0)) (not (= E1 0.0))) (not (= G1 0.0))) (not (>= I1 K))) (not (>= K I1))) (not (>= H1 M))) (not (>= M H1)))))) (not (and (= O 0.0) (not (= Q 0.0))))) (not (and (= O 0.0) (or (or (or (or (or (or (not (= U 0.0)) (not (= Q 0.0))) (not (= V 0.0))) (not (>= Z I1))) (not (>= I1 Z))) (not (>= Y H1))) (not (>= H1 Y)))))) (not (and (= U 0.0) (not (= X 0.0))))) (not (and (= U 0.0) (or (or (or (or (or (not (= N 0.0)) (not (= X 0.0))) (not (<= Z 0.0))) (not (>= (+ Z 0.0) 0.0))) (not (>= W Y))) (not (>= Y W)))))) (not (and (= N 0.0) (not (= S 0.0))))) (not (and (= N 0.0) (or (or (not (= L 0.0)) (not (= S 0.0))) (not (= T 0.0)))))) (not (and (or (not (= J 0.0)) (not (= K M))) (or (= J 0.0) (= K M))))))) (and (and (and (and (= A 4.0) (= I 4.0)) true) true) (and (and (not (not (>= (+ J 0.0) 0.0))) (not (not (<= J 1.0)))) (not (not (= J 0.0)))))) (and (and (and (and (= A 5.0) (= I 0.0)) true) true) (and (and (and (and (and (and (and (and (and (and (and (and (and (and (and (not (not (>= (+ L 0.0) 0.0))) (not (not (<= L 1.0)))) (not (not (>= (+ T 0.0) 0.0)))) (not (not (<= T 1.0)))) (not (not (>= (+ N 0.0) 0.0)))) (not (not (<= N 1.0)))) (not (not (>= (+ S 0.0) 0.0)))) (not (not (<= S 1.0)))) (not (not (>= (+ J 0.0) 0.0)))) (not (not (<= J 1.0)))) (not (and (or (not (= T 0.0)) (not (= (+ U 0.0) 0.0))) (or (= T 0.0) (= (+ U 0.0) 0.0))))) (not (= J 0.0))) (not (not (= N 0.0)))) (not (and (= N 0.0) (not (= S 0.0))))) (not (and (= N 0.0) (or (or (or (or (or (or (not (= L 0.0)) (not (= S 0.0))) (not (= T 0.0))) (not (<= K 10.0))) (not (>= (+ K (- 10.0)) 0.0))) (not (<= M 10.0))) (not (>= (+ M (- 10.0)) 0.0)))))) (not (and (or (not (= J 0.0)) (not (= K M))) (or (= J 0.0) (= K M))))))) (and (and (and (and (= A 5.0) (= I 1.0)) true) (and (= V P) (= I1 R))) (and (and (and (and (and (and (and (and (and (and (and (and (and (and (and (and (and (and (and (and (and (and (and (and (and (and (not (not (>= (+ N 0.0) 0.0))) (not (not (<= N 1.0)))) (not (not (>= (+ L 0.0) 0.0)))) (not (not (<= L 1.0)))) (not (not (>= (+ S 0.0) 0.0)))) (not (not (<= S 1.0)))) (not (not (>= (+ T 0.0) 0.0)))) (not (not (<= T 1.0)))) (not (not (>= (+ Q 0.0) 0.0)))) (not (not (<= Q 1.0)))) (not (not (>= (+ Y 0.0) 0.0)))) (not (not (<= Y 1.0)))) (not (not (>= (+ J 0.0) 0.0)))) (not (not (<= J 1.0)))) (not (not (>= (+ O 0.0) 0.0)))) (not (not (<= O 1.0)))) (not (and (or (not (= Q 0.0)) (not (= (+ C1 0.0) 0.0))) (or (= Q 0.0) (= (+ C1 0.0) 0.0))))) (not (and (or (not (= T 0.0)) (not (= (+ H1 0.0) 0.0))) (or (= T 0.0) (= (+ H1 0.0) 0.0))))) (not (not (= Z (+ 1.0 I1))))) (not (not (= U (+ 1.0 V))))) (not (= J 0.0))) (not (not (= Y 0.0)))) (not (and (= Y 0.0) (not (= O 0.0))))) (not (and (= Y 0.0) (or (or (or (or (or (or (not (= N 0.0)) (not (= O 0.0))) (not (= Q 0.0))) (not (>= X K))) (not (>= K X))) (not (>= W M))) (not (>= M W)))))) (not (and (= N 0.0) (not (= S 0.0))))) (not (and (= N 0.0) (or (or (or (or (or (or (not (= L 0.0)) (not (= S 0.0))) (not (= T 0.0))) (not (>= U X))) (not (>= X U))) (not (>= Z W))) (not (>= W Z)))))) (not (and (or (not (= J 0.0)) (not (= K M))) (or (= J 0.0) (= K M))))))) (and (and (and (and (= A 5.0) (= I 2.0)) true) (and (and (and (= Q1 P) (= J1 R)) (= G1 D1)) (= A1 F1))) (and (and (and (and (and (and (and (and (and (and (and (and (and (and (and (and (and (and (and (and (and (and (and (and (and (and (and (and (and (and (and (and (and (and (and (not (not (>= (+ Y 0.0) 0.0))) (not (not (<= Y 1.0)))) (not (not (>= (+ E1 0.0) 0.0)))) (not (not (<= E1 1.0)))) (not (not (>= (+ N 0.0) 0.0)))) (not (not (<= N 1.0)))) (not (not (>= (+ L 0.0) 0.0)))) (not (not (<= L 1.0)))) (not (not (>= (+ S 0.0) 0.0)))) (not (not (<= S 1.0)))) (not (not (>= (+ T 0.0) 0.0)))) (not (not (<= T 1.0)))) (not (not (>= (+ O 0.0) 0.0)))) (not (not (<= O 1.0)))) (not (not (>= (+ Q 0.0) 0.0)))) (not (not (<= Q 1.0)))) (not (not (>= (+ H1 0.0) 0.0)))) (not (not (<= H1 1.0)))) (not (not (>= (+ J 0.0) 0.0)))) (not (not (<= J 1.0)))) (not (not (>= (+ C1 0.0) 0.0)))) (not (not (<= C1 1.0)))) (not (and (or (not (= E1 0.0)) (not (= (+ L1 0.0) 0.0))) (or (= E1 0.0) (= (+ L1 0.0) 0.0))))) (not (and (or (not (= Q 0.0)) (not (= (+ B1 0.0) 0.0))) (or (= Q 0.0) (= (+ B1 0.0) 0.0))))) (not (and (or (not (= T 0.0)) (<= U 0.0)) (or (= T 0.0) (not (<= U 0.0)))))) (not (not (= Z (+ 2.0 A1))))) (not (not (= U (+ 2.0 G1))))) (not (= J 0.0))) (not (not (= H1 0.0)))) (not (and (= H1 0.0) (not (= C1 0.0))))) (not (and (= H1 0.0) (or (or (or (or (or (or (not (= Y 0.0)) (not (= C1 0.0))) (not (= E1 0.0))) (not (>= V K))) (not (>= K V))) (not (>= I1 M))) (not (>= M I1)))))) (not (and (= Y 0.0) (not (= O 0.0))))) (not (and (= Y 0.0) (or (or (or (or (or (or (not (= N 0.0)) (not (= O 0.0))) (not (= Q 0.0))) (not (>= X V))) (not (>= V X))) (not (>= W I1))) (not (>= I1 W)))))) (not (and (= N 0.0) (not (= S 0.0))))) (not (and (= N 0.0) (or (or (or (or (or (or (not (= L 0.0)) (not (= S 0.0))) (= T 0.0)) (not (>= U X))) (not (>= X U))) (not (>= Z W))) (not (>= W Z)))))) (not (and (or (not (= J 0.0)) (not (= K M))) (or (= J 0.0) (= K M))))))) (and (and (and (and (= A 5.0) (= I 3.0)) true) (and (and (and (and (and (and (= R1 P) (= S1 R)) (= J1 D1)) (= Q1 F1)) (= L1 M1)) (= T1 O1)) (= B1 P1))) (and (and (and (and (and (and (and (and (and (and (and (and (and (and (and (and (and (and (and (and (and (and (and (and (and (and (and (and (and (and (and (and (and (and (and (and (and (and (and (and (and (not (not (>= (+ O 0.0) 0.0))) (not (not (<= O 1.0)))) (not (not (>= (+ G1 0.0) 0.0)))) (not (not (<= G1 1.0)))) (not (not (>= (+ U 0.0) 0.0)))) (not (not (<= U 1.0)))) (not (not (>= (+ Q 0.0) 0.0)))) (not (not (<= Q 1.0)))) (not (not (>= (+ V 0.0) 0.0)))) (not (not (<= V 1.0)))) (not (not (>= (+ N 0.0) 0.0)))) (not (not (<= N 1.0)))) (not (not (>= (+ L 0.0) 0.0)))) (not (not (<= L 1.0)))) (not (not (>= (+ S 0.0) 0.0)))) (not (not (<= S 1.0)))) (not (not (>= (+ T 0.0) 0.0)))) (not (not (<= T 1.0)))) (not (not (>= (+ X 0.0) 0.0)))) (not (not (<= X 1.0)))) (not (not (>= (+ C1 0.0) 0.0)))) (not (not (<= C1 1.0)))) (not (not (>= (+ J 0.0) 0.0)))) (not (not (<= J 1.0)))) (not (not (>= (+ E1 0.0) 0.0)))) (not (not (<= E1 1.0)))) (not (and (or (not (= G1 0.0)) (not (= (+ N1 0.0) 0.0))) (or (= G1 0.0) (= (+ N1 0.0) 0.0))))) (not (and (or (not (= V 0.0)) (not (= (+ K1 0.0) 0.0))) (or (= V 0.0) (= (+ K1 0.0) 0.0))))) (not (not (= W (- Q1 J1))))) (not (and (or (not (= T 0.0)) (not (= A1 L1))) (or (= T 0.0) (= A1 L1))))) (not (not (= A1 (+ 1.0 B1))))) (not (= J 0.0))) (not (not (= C1 0.0)))) (not (and (= C1 0.0) (not (= E1 0.0))))) (not (and (= C1 0.0) (or (or (or (or (or (or (not (= O 0.0)) (not (= E1 0.0))) (not (= G1 0.0))) (not (>= I1 K))) (not (>= K I1))) (not (>= H1 M))) (not (>= M H1)))))) (not (and (= O 0.0) (not (= Q 0.0))))) (not (and (= O 0.0) (or (or (or (or (or (or (not (= U 0.0)) (not (= Q 0.0))) (not (= V 0.0))) (not (>= Z I1))) (not (>= I1 Z))) (not (>= Y H1))) (not (>= H1 Y)))))) (not (and (= U 0.0) (not (= X 0.0))))) (not (and (= U 0.0) (or (or (or (or (or (not (= N 0.0)) (not (= X 0.0))) (not (<= Z 0.0))) (not (>= (+ Z 0.0) 0.0))) (not (>= W Y))) (not (>= Y W)))))) (not (and (= N 0.0) (not (= S 0.0))))) (not (and (= N 0.0) (or (or (not (= L 0.0)) (not (= S 0.0))) (not (= T 0.0)))))) (not (and (or (not (= J 0.0)) (not (= K M))) (or (= J 0.0) (= K M))))))) (p I P R D1 F1 M1 O1 P1)) (p A B C D E F G H))))
(assert(not (exists((A Real)(B Real)(C Real)(D Real)(E Real)(F Real)(G Real)(H Real))(and (and (and (= A 5.0) true) true) (p A B C D E F G H)))))
(check-sat)
